Minimize
	value: tt

Subject to
tt + 1000 s_1_1 > 0.0
tt - t_1_1 - 1000.000000 s_1_1  > -986.918500
tt + 1000 s_2_1 > 0.0
tt - t_2_1 - 1000.000000 s_2_1  > -969.457904
tt + 1000 s_1_2 > 0.0
tt - t_1_2 - 1000.000000 s_1_2  > -998.529700
tt + 1000 s_2_2 > 0.0
tt - t_2_2 - 1000.000000 s_2_2  > -996.409947
tt + 1000 s_1_3 > 0.0
tt - t_1_3 - 1000.000000 s_1_3  > -998.008000
tt + 1000 s_2_3 > 0.0
tt - t_2_3 - 1000.000000 s_2_3  > -995.062526
tt + 1000 s_1_4 > 0.0
tt - t_1_4 - 1000.000000 s_1_4  > -992.722900
tt + 1000 s_2_4 > 0.0
tt - t_2_4 - 1000.000000 s_2_4  > -983.053840
tt + 1000 s_1_5 > 0.0
tt - t_1_5 - 1000.000000 s_1_5  + 0.000000 s_1_2  > -999.921000
tt + 1000 s_2_5 > 0.0
tt - t_2_5 - 1000.000000 s_2_5  + 0.000000 s_2_2  > -999.795000
s_1_1 + s_2_1 = 1
s_1_2 + s_2_2 = 1
s_1_3 + s_2_3 = 1
s_1_4 + s_2_4 = 1
s_1_5 + s_2_5 = 1
s_1_1 + s_1_2 + 1000 r_1_1_2 >= 2
- s_1_1 - s_1_2 - 1000 r_1_1_2 >= -1001
t_1_1 - t_1_2 - 1000.000000 u_1_1_2 - 0.000000 s_1_2  + 2000.000000 r_1_1_2 > -998.529700
s_2_1 + s_2_2 + 1000 r_2_1_2 >= 2
- s_2_1 - s_2_2 - 1000 r_2_1_2 >= -1001
t_2_1 - t_2_2 - 1000.000000 u_2_1_2 - 0.000000 s_2_2  + 2000.000000 r_2_1_2 > -996.409947
s_1_1 + s_1_3 + 1000 r_1_1_3 >= 2
- s_1_1 - s_1_3 - 1000 r_1_1_3 >= -1001
t_1_1 - t_1_3 - 1000.000000 u_1_1_3 - 0.000000 s_1_3  + 2000.000000 r_1_1_3 > -998.008000
s_2_1 + s_2_3 + 1000 r_2_1_3 >= 2
- s_2_1 - s_2_3 - 1000 r_2_1_3 >= -1001
t_2_1 - t_2_3 - 1000.000000 u_2_1_3 - 0.000000 s_2_3  + 2000.000000 r_2_1_3 > -995.062526
s_1_1 + s_1_4 + 1000 r_1_1_4 >= 2
- s_1_1 - s_1_4 - 1000 r_1_1_4 >= -1001
t_1_1 - t_1_4 - 1000.000000 u_1_1_4 - 0.000000 s_1_4  + 2000.000000 r_1_1_4 > -992.722900
s_2_1 + s_2_4 + 1000 r_2_1_4 >= 2
- s_2_1 - s_2_4 - 1000 r_2_1_4 >= -1001
t_2_1 - t_2_4 - 1000.000000 u_2_1_4 - 0.000000 s_2_4  + 2000.000000 r_2_1_4 > -983.053840
t_1_5 - t_1_1 - 1000.000000 s_1_1  > -986.918500
t_1_5 - t_2_1 - 1000.000000 s_2_1  > -969.457904
t_2_5 - t_1_1 - 1000.000000 s_1_1  > -986.918500
t_2_5 - t_2_1 - 1000.000000 s_2_1  > -969.457904
s_1_2 + s_1_1 + 1000 r_1_1_2 >= 2
- s_1_2 - s_1_1 - 1000 r_1_1_2 >= -1001
t_1_2 - t_1_1 + 1000.000000 u_1_1_2 - 0.000000 s_1_1  + 2000.000000 r_1_1_2 > 13.081500
s_2_2 + s_2_1 + 1000 r_2_1_2 >= 2
- s_2_2 - s_2_1 - 1000 r_2_1_2 >= -1001
t_2_2 - t_2_1 + 1000.000000 u_2_1_2 - 0.000000 s_2_1  + 2000.000000 r_2_1_2 > 30.542096
s_1_2 + s_1_3 + 1000 r_1_2_3 >= 2
- s_1_2 - s_1_3 - 1000 r_1_2_3 >= -1001
t_1_2 - t_1_3 - 1000.000000 u_1_2_3 - 0.000000 s_1_3  + 2000.000000 r_1_2_3 > -998.008000
s_2_2 + s_2_3 + 1000 r_2_2_3 >= 2
- s_2_2 - s_2_3 - 1000 r_2_2_3 >= -1001
t_2_2 - t_2_3 - 1000.000000 u_2_2_3 - 0.000000 s_2_3  + 2000.000000 r_2_2_3 > -995.062526
s_1_2 + s_1_4 + 1000 r_1_2_4 >= 2
- s_1_2 - s_1_4 - 1000 r_1_2_4 >= -1001
t_1_2 - t_1_4 - 1000.000000 u_1_2_4 - 0.000000 s_1_4  + 2000.000000 r_1_2_4 > -992.722900
s_2_2 + s_2_4 + 1000 r_2_2_4 >= 2
- s_2_2 - s_2_4 - 1000 r_2_2_4 >= -1001
t_2_2 - t_2_4 - 1000.000000 u_2_2_4 - 0.000000 s_2_4  + 2000.000000 r_2_2_4 > -983.053840
t_1_5 - t_1_2 - 1000.000000 s_1_2  > -998.529700
t_1_5 - t_2_2 - 1000.000000 s_2_2  > -996.409947
t_2_5 - t_1_2 - 1000.000000 s_1_2  > -998.529700
t_2_5 - t_2_2 - 1000.000000 s_2_2  > -996.409947
s_1_3 + s_1_1 + 1000 r_1_1_3 >= 2
- s_1_3 - s_1_1 - 1000 r_1_1_3 >= -1001
t_1_3 - t_1_1 + 1000.000000 u_1_1_3 - 0.000000 s_1_1  + 2000.000000 r_1_1_3 > 13.081500
s_2_3 + s_2_1 + 1000 r_2_1_3 >= 2
- s_2_3 - s_2_1 - 1000 r_2_1_3 >= -1001
t_2_3 - t_2_1 + 1000.000000 u_2_1_3 - 0.000000 s_2_1  + 2000.000000 r_2_1_3 > 30.542096
s_1_3 + s_1_2 + 1000 r_1_2_3 >= 2
- s_1_3 - s_1_2 - 1000 r_1_2_3 >= -1001
t_1_3 - t_1_2 + 1000.000000 u_1_2_3 - 0.000000 s_1_2  + 2000.000000 r_1_2_3 > 1.470300
s_2_3 + s_2_2 + 1000 r_2_2_3 >= 2
- s_2_3 - s_2_2 - 1000 r_2_2_3 >= -1001
t_2_3 - t_2_2 + 1000.000000 u_2_2_3 - 0.000000 s_2_2  + 2000.000000 r_2_2_3 > 3.590053
s_1_3 + s_1_4 + 1000 r_1_3_4 >= 2
- s_1_3 - s_1_4 - 1000 r_1_3_4 >= -1001
t_1_3 - t_1_4 - 1000.000000 u_1_3_4 - 0.000000 s_1_4  + 2000.000000 r_1_3_4 > -992.722900
s_2_3 + s_2_4 + 1000 r_2_3_4 >= 2
- s_2_3 - s_2_4 - 1000 r_2_3_4 >= -1001
t_2_3 - t_2_4 - 1000.000000 u_2_3_4 - 0.000000 s_2_4  + 2000.000000 r_2_3_4 > -983.053840
t_1_5 - t_1_3 - 1000.000000 s_1_3  > -998.008000
t_1_5 - t_2_3 - 1000.000000 s_2_3  > -995.062526
t_2_5 - t_1_3 - 1000.000000 s_1_3  > -998.008000
t_2_5 - t_2_3 - 1000.000000 s_2_3  > -995.062526
s_1_4 + s_1_1 + 1000 r_1_1_4 >= 2
- s_1_4 - s_1_1 - 1000 r_1_1_4 >= -1001
t_1_4 - t_1_1 + 1000.000000 u_1_1_4 - 0.000000 s_1_1  + 2000.000000 r_1_1_4 > 13.081500
s_2_4 + s_2_1 + 1000 r_2_1_4 >= 2
- s_2_4 - s_2_1 - 1000 r_2_1_4 >= -1001
t_2_4 - t_2_1 + 1000.000000 u_2_1_4 - 0.000000 s_2_1  + 2000.000000 r_2_1_4 > 30.542096
s_1_4 + s_1_2 + 1000 r_1_2_4 >= 2
- s_1_4 - s_1_2 - 1000 r_1_2_4 >= -1001
t_1_4 - t_1_2 + 1000.000000 u_1_2_4 - 0.000000 s_1_2  + 2000.000000 r_1_2_4 > 1.470300
s_2_4 + s_2_2 + 1000 r_2_2_4 >= 2
- s_2_4 - s_2_2 - 1000 r_2_2_4 >= -1001
t_2_4 - t_2_2 + 1000.000000 u_2_2_4 - 0.000000 s_2_2  + 2000.000000 r_2_2_4 > 3.590053
s_1_4 + s_1_3 + 1000 r_1_3_4 >= 2
- s_1_4 - s_1_3 - 1000 r_1_3_4 >= -1001
t_1_4 - t_1_3 + 1000.000000 u_1_3_4 - 0.000000 s_1_3  + 2000.000000 r_1_3_4 > 1.992000
s_2_4 + s_2_3 + 1000 r_2_3_4 >= 2
- s_2_4 - s_2_3 - 1000 r_2_3_4 >= -1001
t_2_4 - t_2_3 + 1000.000000 u_2_3_4 - 0.000000 s_2_3  + 2000.000000 r_2_3_4 > 4.937474
t_1_5 - t_1_4 - 1000.000000 s_1_4  > -992.722900
t_1_5 - t_2_4 - 1000.000000 s_2_4  > -983.053840
t_2_5 - t_1_4 - 1000.000000 s_1_4  > -992.722900
t_2_5 - t_2_4 - 1000.000000 s_2_4  > -983.053840
Binary
s_1_1
s_2_1
s_1_2
s_2_2
s_1_3
s_2_3
s_1_4
s_2_4
s_1_5
s_2_5
u_1_1_2
r_1_1_2
u_2_1_2
r_2_1_2
u_1_1_3
r_1_1_3
u_2_1_3
r_2_1_3
u_1_1_4
r_1_1_4
u_2_1_4
r_2_1_4
u_1_2_3
r_1_2_3
u_2_2_3
r_2_2_3
u_1_2_4
r_1_2_4
u_2_2_4
r_2_2_4
u_1_3_4
r_1_3_4
u_2_3_4
r_2_3_4

End
